20
587 233 220
63 55 31
120 43 23
97 72 57
77 76 42
93 74 20
65 63 43
108 71 40
79 36 21
68 62 26
68 50 40
79 42 31
76 56 38
80 79 51
115 69 29
113 50 30
96 90 22
60 41 26
118 93 36
80 72 33
98 96 76
thpack7_45